Minimize
  - 45 y_0 - 53 y_1 - 55 y_2 - 48 y_3 - 11 y_4 - 14 y_5 - 38 y_6 - 31 y_7
   - 65 y_8 - 44 y_9 - 27 y_10 - 40 y_11 - 40 y_12 - 54 y_13 - 54 y_14
   - 32 y_15 - 44 y_16 - 26 y_17 - 33 y_18 - 37 y_19 - 55 y_20 - 49 y_21
   - 48 y_22 - 49 y_23 - 46 y_24 - 23 y_25 - 36 y_26 - 49 y_27 - 50 y_28
   - 35 y_29 - 38 y_30 - 31 y_31 - 9 y_32 - 44 y_33 - 49 y_34 - 44 y_35
   - 2 y_36 - 31 y_37 - 50 y_38 - 54 y_39 - 34 y_40 - 51 y_41 - 44 y_42
   - 17 y_43 - 51 y_44 - 48 y_45 - 8 y_46 - 37 y_47 - 17 y_48 - 43 y_49
   - 50 y_50 - 64 y_51 - 51 y_52 - 37 y_53 - 58 y_54 - 28 y_55 - 44 y_56
   - 48 y_57 - 25 y_58 - 42 y_59 - 43 y_60 - 41 y_61 - 40 y_62 - 30 y_63
   - 52 y_64 - 28 y_65 - 51 y_66 - 44 y_67 - 51 y_68 - 45 y_69 - 40 y_70
   - 38 y_71 - 46 y_72 - 10 y_73 - 34 y_75 - 49 y_76 - 32 y_77 - 61 y_78
   - 29 y_79 - 20 y_80 - 13 y_81 - 36 y_82 - 48 y_83 - 29 y_84 - 35 y_85
   - 52 y_86 - 51 y_87 - 48 y_88 - 23 y_89 - 20 y_90 - 41 y_91 - 22 y_92
   - 56 y_93 - 44 y_94 - 59 y_95 - 12 y_96 - 32 y_97 - 30 y_98 - 39 y_99
   + 3854 Constant
Subject To
 c_0: y_60 = 1
 c_1_0: y_0 + y_11 + y_23 + y_24 + y_26 + y_28 + y_34 + y_42 + y_45 + y_62
   + y_99 >= 1
 c_1_1: y_1 + y_3 + y_35 + y_41 + y_50 + y_57 + y_66 + y_69 + y_72 + y_76
   + y_86 + y_88 >= 1
 c_1_2: y_2 + y_13 + y_14 + y_21 + y_38 + y_39 + y_52 + y_54 + y_83 + y_93
   + y_95 >= 1
 c_1_3: y_1 + y_3 + y_33 + y_35 + y_41 + y_50 + y_57 + y_60 + y_67 + y_69
   + y_72 + y_76 + y_88 + y_91 + y_94 >= 1
 c_1_4: y_4 + y_5 + y_32 + y_36 + y_43 + y_46 + y_73 + y_80 + y_81 + y_96
   >= 1
 c_1_5: y_4 + y_5 + y_25 + y_46 + y_48 + y_73 + y_81 + y_90 + y_92 >= 1
 c_1_6: y_6 + y_12 + y_15 + y_18 + y_49 + y_53 + y_56 + y_59 + y_61 + y_83
   >= 1
 c_1_7: y_7 + y_11 + y_17 + y_19 + y_25 + y_26 + y_40 + y_62 + y_63 + y_65
   + y_77 + y_92 + y_97 + y_98 + y_99 >= 1
 c_1_8: y_8 + y_51 + y_54 + y_78 + y_95 >= 1
 c_1_9: y_9 + y_11 + y_19 + y_22 + y_23 + y_24 + y_45 >= 1
 c_1_10: y_10 + y_31 + y_37 + y_43 + y_55 + y_80 + y_85 + y_89 >= 1
 c_1_11: y_0 + y_7 + y_9 + y_11 + y_19 + y_22 + y_23 + y_24 + y_26 + y_40
   + y_42 + y_45 + y_62 + y_77 + y_99 >= 1
 c_1_12: y_6 + y_12 + y_49 + y_53 + y_56 + y_59 + y_61 + y_83 >= 1
 c_1_13: y_2 + y_13 + y_21 + y_34 + y_38 + y_52 + y_54 + y_83 + y_93 >= 1
 c_1_14: y_2 + y_14 + y_20 + y_21 + y_27 + y_38 + y_39 + y_44 + y_51 + y_54
   + y_56 + y_64 + y_68 + y_78 + y_83 + y_95 >= 1
 c_1_15: y_6 + y_15 + y_18 + y_29 + y_47 + y_58 + y_70 + y_75 + y_82 >= 1
 c_1_16: y_16 + y_27 + y_35 + y_44 + y_49 + y_56 + y_57 + y_64 + y_66
   + y_70 + y_82 + y_86 + y_87 + y_88 >= 1
 c_1_17: y_7 + y_17 + y_25 + y_26 + y_40 + y_48 + y_58 + y_63 + y_65 + y_77
   + y_79 + y_84 + y_90 + y_92 + y_97 + y_98 >= 1
 c_1_18: y_6 + y_15 + y_18 + y_29 + y_47 + y_70 + y_75 + y_82 >= 1
 c_1_19: y_7 + y_9 + y_11 + y_19 + y_24 + y_26 + y_40 + y_77 >= 1
 c_1_20: y_14 + y_20 + y_27 + y_38 + y_39 + y_44 + y_64 + y_66 + y_68
   + y_78 + y_86 + y_87 + y_95 >= 1
 c_1_21: y_2 + y_13 + y_14 + y_21 + y_34 + y_38 + y_39 + y_52 + y_54 + y_59
   + y_61 + y_68 + y_83 + y_93 >= 1
 c_1_22: y_9 + y_11 + y_22 + y_23 + y_24 + y_45 >= 1
 c_1_23: y_0 + y_9 + y_11 + y_22 + y_23 + y_24 + y_28 + y_42 + y_45 >= 1
 c_1_24: y_0 + y_9 + y_11 + y_19 + y_22 + y_23 + y_24 + y_42 + y_45 + y_62
   >= 1
 c_1_25: y_5 + y_7 + y_17 + y_25 + y_48 + y_65 + y_77 + y_90 + y_92 >= 1
 c_1_26: y_0 + y_7 + y_11 + y_17 + y_19 + y_26 + y_40 + y_42 + y_53 + y_62
   + y_63 + y_65 + y_71 + y_77 + y_97 + y_98 + y_99 >= 1
 c_1_27: y_14 + y_16 + y_20 + y_27 + y_38 + y_39 + y_44 + y_49 + y_56
   + y_59 + y_64 + y_66 + y_68 + y_83 + y_86 + y_87 >= 1
 c_1_28: y_0 + y_23 + y_28 + y_34 + y_42 + y_52 + y_93 >= 1
 c_1_29: y_15 + y_18 + y_29 + y_30 + y_31 + y_35 + y_47 + y_55 + y_67
   + y_70 + y_75 + y_82 + y_91 >= 1
 c_1_30: y_29 + y_30 + y_31 + y_33 + y_37 + y_47 + y_60 + y_67 + y_69
   + y_72 + y_85 + y_91 + y_94 >= 1
 c_1_31: y_10 + y_29 + y_30 + y_31 + y_37 + y_47 + y_55 + y_75 + y_82
   + y_85 + y_89 >= 1
 c_1_32: y_4 + y_32 + y_36 + y_43 + y_46 + y_73 + y_74 + y_81 + y_96 >= 1
 c_1_33: y_3 + y_30 + y_33 + y_35 + y_41 + y_47 + y_50 + y_57 + y_60 + y_67
   + y_69 + y_72 + y_76 + y_88 + y_91 + y_94 >= 1
 c_1_34: y_0 + y_13 + y_21 + y_28 + y_34 + y_42 + y_52 + y_93 >= 1
 c_1_35: y_1 + y_3 + y_16 + y_29 + y_33 + y_35 + y_41 + y_47 + y_50 + y_57
   + y_60 + y_66 + y_67 + y_69 + y_70 + y_72 + y_76 + y_82 + y_88 + y_91
   + y_94 >= 1
 c_1_36: y_4 + y_32 + y_36 + y_46 + y_73 + y_74 >= 1
 c_1_37: y_10 + y_30 + y_31 + y_37 + y_55 + y_85 + y_89 >= 1
 c_1_38: y_2 + y_13 + y_14 + y_20 + y_21 + y_27 + y_38 + y_39 + y_52 + y_54
   + y_56 + y_59 + y_68 + y_83 + y_95 >= 1
 c_1_39: y_2 + y_14 + y_20 + y_21 + y_27 + y_38 + y_39 + y_44 + y_51 + y_54
   + y_56 + y_68 + y_78 + y_83 + y_95 >= 1
 c_1_40: y_7 + y_11 + y_17 + y_19 + y_26 + y_40 + y_53 + y_62 + y_63 + y_65
   + y_71 + y_77 + y_79 + y_84 + y_97 + y_98 + y_99 >= 1
 c_1_41: y_1 + y_3 + y_33 + y_35 + y_41 + y_50 + y_57 + y_60 + y_67 + y_69
   + y_72 + y_76 + y_88 + y_94 >= 1
 c_1_42: y_0 + y_11 + y_23 + y_24 + y_26 + y_28 + y_34 + y_42 + y_45 + y_62
   + y_99 >= 1
 c_1_43: y_4 + y_10 + y_32 + y_43 + y_73 + y_80 + y_89 + y_96 >= 1
 c_1_44: y_14 + y_16 + y_20 + y_27 + y_39 + y_44 + y_49 + y_56 + y_64
   + y_66 + y_68 + y_86 + y_87 >= 1
 c_1_45: y_0 + y_9 + y_11 + y_22 + y_23 + y_24 + y_42 + y_45 >= 1
 c_1_46: y_4 + y_5 + y_32 + y_36 + y_46 + y_73 + y_74 + y_81 + y_96 >= 1
 c_1_47: y_15 + y_18 + y_29 + y_30 + y_31 + y_33 + y_35 + y_47 + y_55
   + y_60 + y_67 + y_69 + y_70 + y_72 + y_75 + y_82 + y_91 + y_94 >= 1
 c_1_48: y_5 + y_17 + y_25 + y_48 + y_65 + y_81 + y_90 + y_92 >= 1
 c_1_49: y_6 + y_12 + y_16 + y_27 + y_44 + y_49 + y_56 + y_59 + y_64 + y_66
   + y_68 + y_70 + y_86 + y_87 >= 1
 c_1_50: y_1 + y_3 + y_33 + y_35 + y_41 + y_50 + y_60 + y_67 + y_69 + y_72
   + y_76 + y_88 + y_91 + y_94 >= 1
 c_1_51: y_8 + y_14 + y_39 + y_51 + y_54 + y_78 + y_95 >= 1
 c_1_52: y_2 + y_13 + y_21 + y_28 + y_34 + y_38 + y_52 + y_83 + y_93 >= 1
 c_1_53: y_6 + y_12 + y_26 + y_40 + y_53 + y_59 + y_61 + y_62 + y_63 + y_71
   + y_79 + y_84 + y_97 + y_98 + y_99 >= 1
 c_1_54: y_2 + y_8 + y_13 + y_14 + y_21 + y_38 + y_39 + y_51 + y_54 + y_68
   + y_78 + y_83 + y_93 + y_95 >= 1
 c_1_55: y_10 + y_29 + y_31 + y_37 + y_47 + y_55 + y_75 + y_80 + y_82
   + y_89 >= 1
 c_1_56: y_6 + y_12 + y_14 + y_16 + y_27 + y_38 + y_39 + y_44 + y_49 + y_56
   + y_59 + y_68 + y_83 >= 1
 c_1_57: y_1 + y_3 + y_16 + y_33 + y_35 + y_41 + y_57 + y_64 + y_66 + y_67
   + y_69 + y_70 + y_72 + y_86 + y_87 + y_88 + y_94 >= 1
 c_1_58: y_15 + y_17 + y_58 + y_63 + y_79 + y_84 + y_90 + y_97 + y_98 >= 1
 c_1_59: y_6 + y_12 + y_21 + y_27 + y_38 + y_49 + y_53 + y_56 + y_59 + y_61
   + y_68 + y_83 >= 1
 c_1_60: y_3 + y_30 + y_33 + y_35 + y_41 + y_47 + y_50 + y_60 + y_67 + y_69
   + y_72 + y_76 + y_91 + y_94 >= 1
 c_1_61: y_6 + y_12 + y_21 + y_53 + y_59 + y_61 + y_62 + y_71 + y_83 + y_97
   + y_99 >= 1
 c_1_62: y_0 + y_7 + y_11 + y_24 + y_26 + y_40 + y_42 + y_53 + y_61 + y_62
   + y_71 + y_77 + y_97 + y_99 >= 1
 c_1_63: y_7 + y_17 + y_26 + y_40 + y_53 + y_58 + y_63 + y_65 + y_71 + y_77
   + y_79 + y_84 + y_97 + y_98 >= 1
 c_1_64: y_14 + y_16 + y_20 + y_27 + y_44 + y_49 + y_57 + y_64 + y_66
   + y_68 + y_86 + y_87 >= 1
 c_1_65: y_7 + y_17 + y_25 + y_26 + y_40 + y_48 + y_63 + y_65 + y_77 + y_79
   + y_84 + y_92 + y_97 + y_98 >= 1
 c_1_66: y_1 + y_16 + y_20 + y_27 + y_35 + y_44 + y_49 + y_57 + y_64 + y_66
   + y_86 + y_87 + y_88 >= 1
 c_1_67: y_3 + y_29 + y_30 + y_33 + y_35 + y_41 + y_47 + y_50 + y_57 + y_60
   + y_67 + y_69 + y_72 + y_76 + y_88 + y_91 + y_94 >= 1
 c_1_68: y_14 + y_20 + y_21 + y_27 + y_38 + y_39 + y_44 + y_49 + y_54
   + y_56 + y_59 + y_64 + y_68 + y_83 + y_95 >= 1
 c_1_69: y_1 + y_3 + y_30 + y_33 + y_35 + y_41 + y_47 + y_50 + y_57 + y_60
   + y_67 + y_69 + y_72 + y_76 + y_88 + y_91 + y_94 >= 1
 c_1_70: y_15 + y_16 + y_18 + y_29 + y_35 + y_47 + y_49 + y_57 + y_70
   + y_75 + y_82 + y_88 >= 1
 c_1_71: y_26 + y_40 + y_53 + y_61 + y_62 + y_63 + y_71 + y_77 + y_79
   + y_84 + y_97 + y_98 + y_99 >= 1
 c_1_72: y_1 + y_3 + y_30 + y_33 + y_35 + y_41 + y_47 + y_50 + y_57 + y_60
   + y_67 + y_69 + y_72 + y_76 + y_88 + y_91 + y_94 >= 1
 c_1_73: y_4 + y_5 + y_32 + y_36 + y_43 + y_46 + y_73 + y_74 + y_81 + y_96
   >= 1
 c_1_74: y_32 + y_36 + y_46 + y_73 + y_74 >= 1
 c_1_75: y_15 + y_18 + y_29 + y_31 + y_47 + y_55 + y_70 + y_75 + y_82 >= 1
 c_1_76: y_1 + y_3 + y_33 + y_35 + y_41 + y_50 + y_60 + y_67 + y_69 + y_72
   + y_76 + y_88 + y_91 + y_94 >= 1
 c_1_77: y_7 + y_11 + y_17 + y_19 + y_25 + y_26 + y_40 + y_62 + y_63 + y_65
   + y_71 + y_77 + y_79 + y_92 + y_97 + y_98 + y_99 >= 1
 c_1_78: y_8 + y_14 + y_20 + y_39 + y_51 + y_54 + y_78 + y_95 >= 1
 c_1_79: y_17 + y_40 + y_53 + y_58 + y_63 + y_65 + y_71 + y_77 + y_79
   + y_84 + y_90 + y_97 + y_98 >= 1
 c_1_80: y_4 + y_10 + y_43 + y_55 + y_80 + y_89 + y_96 >= 1
 c_1_81: y_4 + y_5 + y_32 + y_46 + y_48 + y_73 + y_81 + y_90 >= 1
 c_1_82: y_15 + y_16 + y_18 + y_29 + y_31 + y_35 + y_47 + y_55 + y_70
   + y_75 + y_82 >= 1
 c_1_83: y_2 + y_6 + y_12 + y_13 + y_14 + y_21 + y_27 + y_38 + y_39 + y_52
   + y_54 + y_56 + y_59 + y_61 + y_68 + y_83 >= 1
 c_1_84: y_17 + y_40 + y_53 + y_58 + y_63 + y_65 + y_71 + y_79 + y_84
   + y_90 + y_97 + y_98 >= 1
 c_1_85: y_10 + y_30 + y_31 + y_37 + y_85 + y_91 >= 1
 c_1_86: y_1 + y_16 + y_20 + y_27 + y_44 + y_49 + y_57 + y_64 + y_66 + y_86
   + y_87 + y_88 >= 1
 c_1_87: y_16 + y_20 + y_27 + y_44 + y_49 + y_57 + y_64 + y_66 + y_86
   + y_87 + y_88 >= 1
 c_1_88: y_1 + y_3 + y_16 + y_33 + y_35 + y_41 + y_50 + y_57 + y_66 + y_67
   + y_69 + y_70 + y_72 + y_76 + y_86 + y_87 + y_88 + y_94 >= 1
 c_1_89: y_10 + y_31 + y_37 + y_43 + y_55 + y_80 + y_89 >= 1
 c_1_90: y_5 + y_17 + y_25 + y_48 + y_58 + y_79 + y_81 + y_84 + y_90 + y_92
   >= 1
 c_1_91: y_3 + y_29 + y_30 + y_33 + y_35 + y_47 + y_50 + y_60 + y_67 + y_69
   + y_72 + y_76 + y_85 + y_91 + y_94 >= 1
 c_1_92: y_5 + y_7 + y_17 + y_25 + y_48 + y_65 + y_77 + y_90 + y_92 >= 1
 c_1_93: y_2 + y_13 + y_21 + y_28 + y_34 + y_52 + y_54 + y_93 >= 1
 c_1_94: y_3 + y_30 + y_33 + y_35 + y_41 + y_47 + y_50 + y_57 + y_60 + y_67
   + y_69 + y_72 + y_76 + y_88 + y_91 + y_94 >= 1
 c_1_95: y_2 + y_8 + y_14 + y_20 + y_38 + y_39 + y_51 + y_54 + y_68 + y_78
   + y_95 >= 1
 c_1_96: y_4 + y_32 + y_43 + y_46 + y_73 + y_80 + y_96 >= 1
 c_1_97: y_7 + y_17 + y_26 + y_40 + y_53 + y_58 + y_61 + y_62 + y_63 + y_65
   + y_71 + y_77 + y_79 + y_84 + y_97 + y_98 + y_99 >= 1
 c_1_98: y_7 + y_17 + y_26 + y_40 + y_53 + y_58 + y_63 + y_65 + y_71 + y_77
   + y_79 + y_84 + y_97 + y_98 + y_99 >= 1
 c_1_99: y_0 + y_7 + y_11 + y_26 + y_40 + y_42 + y_53 + y_61 + y_62 + y_71
   + y_77 + y_97 + y_98 + y_99 >= 1
Bounds
 Constant = 1
Binaries
 y_0 y_1 y_2 y_3 y_4 y_5 y_6 y_7 y_8 y_9 y_10 y_11 y_12 y_13 y_14 y_15 y_16
 y_17 y_18 y_19 y_20 y_21 y_22 y_23 y_24 y_25 y_26 y_27 y_28 y_29 y_30 y_31
 y_32 y_33 y_34 y_35 y_36 y_37 y_38 y_39 y_40 y_41 y_42 y_43 y_44 y_45 y_46
 y_47 y_48 y_49 y_50 y_51 y_52 y_53 y_54 y_55 y_56 y_57 y_58 y_59 y_60 y_61
 y_62 y_63 y_64 y_65 y_66 y_67 y_68 y_69 y_70 y_71 y_72 y_73 y_74 y_75 y_76
 y_77 y_78 y_79 y_80 y_81 y_82 y_83 y_84 y_85 y_86 y_87 y_88 y_89 y_90 y_91
 y_92 y_93 y_94 y_95 y_96 y_97 y_98 y_99
End
